p cnf 406 1376
c p weight -161 1 0
c p weight 161 -1 0
c p weight 165 6.12323399573676603586882014729198302312846062338790031898128063403419218957424163818359375E-17 0
c p weight -165 1 0
c p weight 166 1 0
c p weight -166 1 0
c p weight -163 1 0
c p weight 163 -1 0
c p weight -167 1 0
c p weight 167 -1 0
c p weight -169 1 0
c p weight 169 -1 0
c p weight -172 1 0
c p weight 172 -1 0
c p weight -175 1 0
c p weight 175 -1 0
c p weight -178 1 0
c p weight 178 -1 0
c p weight -181 1 0
c p weight 181 -1 0
c p weight -184 1 0
c p weight 184 -1 0
c p weight -187 1 0
c p weight 187 -1 0
c p weight -190 1 0
c p weight 190 -1 0
c p weight -193 1 0
c p weight 193 -1 0
c p weight -196 1 0
c p weight 196 -1 0
c p weight -199 1 0
c p weight 199 -1 0
c p weight -202 1 0
c p weight 202 -1 0
c p weight -205 1 0
c p weight 205 -1 0
c p weight -208 1 0
c p weight 208 -1 0
c p weight -211 1 0
c p weight 211 -1 0
c p weight -214 1 0
c p weight 214 -1 0
c p weight -217 1 0
c p weight 217 -1 0
c p weight -220 1 0
c p weight 220 -1 0
c p weight -223 1 0
c p weight 223 -1 0
c p weight -226 1 0
c p weight 226 -1 0
c p weight -229 1 0
c p weight 229 -1 0
c p weight -232 1 0
c p weight 232 -1 0
c p weight -235 1 0
c p weight 235 -1 0
c p weight -238 1 0
c p weight 238 -1 0
c p weight -241 1 0
c p weight 241 -1 0
c p weight -244 1 0
c p weight 244 -1 0
c p weight -247 1 0
c p weight 247 -1 0
c p weight -250 1 0
c p weight 250 -1 0
c p weight -253 1 0
c p weight 253 -1 0
c p weight -256 1 0
c p weight 256 -1 0
c p weight -259 1 0
c p weight 259 -1 0
c p weight -262 1 0
c p weight 262 -1 0
c p weight -265 1 0
c p weight 265 -1 0
c p weight -268 1 0
c p weight 268 -1 0
c p weight -271 1 0
c p weight 271 -1 0
c p weight -274 1 0
c p weight 274 -1 0
c p weight -277 1 0
c p weight 277 -1 0
c p weight -280 1 0
c p weight 280 -1 0
c p weight -283 1 0
c p weight 283 -1 0
c p weight -286 1 0
c p weight 286 -1 0
c p weight -289 1 0
c p weight 289 -1 0
c p weight -292 1 0
c p weight 292 -1 0
c p weight -295 1 0
c p weight 295 -1 0
c p weight -298 1 0
c p weight 298 -1 0
c p weight -301 1 0
c p weight 301 -1 0
c p weight -304 1 0
c p weight 304 -1 0
c p weight -307 1 0
c p weight 307 -1 0
c p weight -310 1 0
c p weight 310 -1 0
c p weight -313 1 0
c p weight 313 -1 0
c p weight -316 1 0
c p weight 316 -1 0
c p weight -319 1 0
c p weight 319 -1 0
c p weight -322 1 0
c p weight 322 -1 0
c p weight -325 1 0
c p weight 325 -1 0
c p weight -328 1 0
c p weight 328 -1 0
c p weight -331 1 0
c p weight 331 -1 0
c p weight -334 1 0
c p weight 334 -1 0
c p weight -337 1 0
c p weight 337 -1 0
c p weight -340 1 0
c p weight 340 -1 0
c p weight -343 1 0
c p weight 343 -1 0
c p weight -346 1 0
c p weight 346 -1 0
c p weight -349 1 0
c p weight 349 -1 0
c p weight -352 1 0
c p weight 352 -1 0
c p weight -355 1 0
c p weight 355 -1 0
c p weight -358 1 0
c p weight 358 -1 0
c p weight -361 1 0
c p weight 361 -1 0
c p weight -364 1 0
c p weight 364 -1 0
c p weight -367 1 0
c p weight 367 -1 0
c p weight -370 1 0
c p weight 370 -1 0
c p weight -373 1 0
c p weight 373 -1 0
c p weight -376 1 0
c p weight 376 -1 0
c p weight -379 1 0
c p weight 379 -1 0
c p weight -382 1 0
c p weight 382 -1 0
c p weight -385 1 0
c p weight 385 -1 0
c p weight -388 1 0
c p weight 388 -1 0
c p weight -391 1 0
c p weight 391 -1 0
c p weight -394 1 0
c p weight 394 -1 0
c p weight -397 1 0
c p weight 397 -1 0
c p weight -400 1 0
c p weight 400 -1 0
c p weight -403 1 0
c p weight 403 -1 0
c p weight 406 0.5 0
c p weight -406 1 0
406 0
-159 0
-157 0
-155 0
-153 0
-151 0
-149 0
-147 0
-145 0
-143 0
-141 0
-139 0
-137 0
-135 0
-133 0
-131 0
-129 0
-127 0
-125 0
-123 0
-121 0
-119 0
-117 0
-115 0
-113 0
-111 0
-109 0
-107 0
-105 0
-103 0
-101 0
-99 0
-97 0
-95 0
-93 0
-91 0
-89 0
-87 0
-85 0
-83 0
-81 0
-79 0
-77 0
-75 0
-73 0
-71 0
-69 0
-67 0
-65 0
-63 0
-61 0
-59 0
-57 0
-55 0
-53 0
-51 0
-49 0
-47 0
-45 0
-43 0
-41 0
-39 0
-37 0
-35 0
-33 0
-31 0
-29 0
-27 0
-25 0
-23 0
-21 0
-19 0
-17 0
-15 0
-13 0
-11 0
-9 0
-7 0
-5 0
-3 0
-1 0
-161 159 0
-161 160 0
161 -159 -160 0
162 159 -160 0
162 -159 160 0
-162 159 160 0
-162 -159 -160 0
-163 164 0
-163 162 0
-163 -159 0
163 -164 159 -162 0
164 -159 162 0
-164 159 162 0
-165 162 0
164 -165 -159 0
-164 -165 159 0
164 165 159 -162 0
-164 165 -159 -162 0
-166 162 0
164 -166 159 0
-164 -166 -159 0
164 166 -159 -162 0
-164 166 159 -162 0
-167 164 0
-167 162 0
167 -164 -162 0
168 164 -162 0
168 -164 162 0
-168 164 162 0
-168 -164 -162 0
-169 164 0
-169 158 0
-169 157 -168 0
-169 -157 168 0
169 -164 157 168 -158 0
169 -164 -157 -168 -158 0
171 164 -157 0
171 -164 157 0
-171 164 157 0
-171 -164 -157 0
170 168 -158 0
170 -168 158 0
-170 168 158 0
-170 -168 -158 0
-172 171 0
-172 156 0
-172 155 -158 0
-172 -155 158 0
172 -171 155 158 -156 0
172 -171 -155 -158 -156 0
174 171 -155 0
174 -171 155 0
-174 171 155 0
-174 -171 -155 0
173 158 -156 0
173 -158 156 0
-173 158 156 0
-173 -158 -156 0
-175 174 0
-175 154 0
-175 153 -156 0
-175 -153 156 0
175 -174 153 156 -154 0
175 -174 -153 -156 -154 0
177 174 -153 0
177 -174 153 0
-177 174 153 0
-177 -174 -153 0
176 156 -154 0
176 -156 154 0
-176 156 154 0
-176 -156 -154 0
-178 177 0
-178 152 0
-178 151 -154 0
-178 -151 154 0
178 -177 151 154 -152 0
178 -177 -151 -154 -152 0
180 177 -151 0
180 -177 151 0
-180 177 151 0
-180 -177 -151 0
179 154 -152 0
179 -154 152 0
-179 154 152 0
-179 -154 -152 0
-181 180 0
-181 150 0
-181 149 -152 0
-181 -149 152 0
181 -180 149 152 -150 0
181 -180 -149 -152 -150 0
183 180 -149 0
183 -180 149 0
-183 180 149 0
-183 -180 -149 0
182 152 -150 0
182 -152 150 0
-182 152 150 0
-182 -152 -150 0
-184 183 0
-184 148 0
-184 147 -150 0
-184 -147 150 0
184 -183 147 150 -148 0
184 -183 -147 -150 -148 0
186 183 -147 0
186 -183 147 0
-186 183 147 0
-186 -183 -147 0
185 150 -148 0
185 -150 148 0
-185 150 148 0
-185 -150 -148 0
-187 186 0
-187 146 0
-187 145 -148 0
-187 -145 148 0
187 -186 145 148 -146 0
187 -186 -145 -148 -146 0
189 186 -145 0
189 -186 145 0
-189 186 145 0
-189 -186 -145 0
188 148 -146 0
188 -148 146 0
-188 148 146 0
-188 -148 -146 0
-190 189 0
-190 144 0
-190 143 -146 0
-190 -143 146 0
190 -189 143 146 -144 0
190 -189 -143 -146 -144 0
192 189 -143 0
192 -189 143 0
-192 189 143 0
-192 -189 -143 0
191 146 -144 0
191 -146 144 0
-191 146 144 0
-191 -146 -144 0
-193 192 0
-193 142 0
-193 141 -144 0
-193 -141 144 0
193 -192 141 144 -142 0
193 -192 -141 -144 -142 0
195 192 -141 0
195 -192 141 0
-195 192 141 0
-195 -192 -141 0
194 144 -142 0
194 -144 142 0
-194 144 142 0
-194 -144 -142 0
-196 195 0
-196 140 0
-196 139 -142 0
-196 -139 142 0
196 -195 139 142 -140 0
196 -195 -139 -142 -140 0
198 195 -139 0
198 -195 139 0
-198 195 139 0
-198 -195 -139 0
197 142 -140 0
197 -142 140 0
-197 142 140 0
-197 -142 -140 0
-199 198 0
-199 138 0
-199 137 -140 0
-199 -137 140 0
199 -198 137 140 -138 0
199 -198 -137 -140 -138 0
201 198 -137 0
201 -198 137 0
-201 198 137 0
-201 -198 -137 0
200 140 -138 0
200 -140 138 0
-200 140 138 0
-200 -140 -138 0
-202 201 0
-202 136 0
-202 135 -138 0
-202 -135 138 0
202 -201 135 138 -136 0
202 -201 -135 -138 -136 0
204 201 -135 0
204 -201 135 0
-204 201 135 0
-204 -201 -135 0
203 138 -136 0
203 -138 136 0
-203 138 136 0
-203 -138 -136 0
-205 204 0
-205 134 0
-205 133 -136 0
-205 -133 136 0
205 -204 133 136 -134 0
205 -204 -133 -136 -134 0
207 204 -133 0
207 -204 133 0
-207 204 133 0
-207 -204 -133 0
206 136 -134 0
206 -136 134 0
-206 136 134 0
-206 -136 -134 0
-208 207 0
-208 132 0
-208 131 -134 0
-208 -131 134 0
208 -207 131 134 -132 0
208 -207 -131 -134 -132 0
210 207 -131 0
210 -207 131 0
-210 207 131 0
-210 -207 -131 0
209 134 -132 0
209 -134 132 0
-209 134 132 0
-209 -134 -132 0
-211 210 0
-211 130 0
-211 129 -132 0
-211 -129 132 0
211 -210 129 132 -130 0
211 -210 -129 -132 -130 0
213 210 -129 0
213 -210 129 0
-213 210 129 0
-213 -210 -129 0
212 132 -130 0
212 -132 130 0
-212 132 130 0
-212 -132 -130 0
-214 213 0
-214 128 0
-214 127 -130 0
-214 -127 130 0
214 -213 127 130 -128 0
214 -213 -127 -130 -128 0
216 213 -127 0
216 -213 127 0
-216 213 127 0
-216 -213 -127 0
215 130 -128 0
215 -130 128 0
-215 130 128 0
-215 -130 -128 0
-217 216 0
-217 126 0
-217 125 -128 0
-217 -125 128 0
217 -216 125 128 -126 0
217 -216 -125 -128 -126 0
219 216 -125 0
219 -216 125 0
-219 216 125 0
-219 -216 -125 0
218 128 -126 0
218 -128 126 0
-218 128 126 0
-218 -128 -126 0
-220 219 0
-220 124 0
-220 123 -126 0
-220 -123 126 0
220 -219 123 126 -124 0
220 -219 -123 -126 -124 0
222 219 -123 0
222 -219 123 0
-222 219 123 0
-222 -219 -123 0
221 126 -124 0
221 -126 124 0
-221 126 124 0
-221 -126 -124 0
-223 222 0
-223 122 0
-223 121 -124 0
-223 -121 124 0
223 -222 121 124 -122 0
223 -222 -121 -124 -122 0
225 222 -121 0
225 -222 121 0
-225 222 121 0
-225 -222 -121 0
224 124 -122 0
224 -124 122 0
-224 124 122 0
-224 -124 -122 0
-226 225 0
-226 120 0
-226 119 -122 0
-226 -119 122 0
226 -225 119 122 -120 0
226 -225 -119 -122 -120 0
228 225 -119 0
228 -225 119 0
-228 225 119 0
-228 -225 -119 0
227 122 -120 0
227 -122 120 0
-227 122 120 0
-227 -122 -120 0
-229 228 0
-229 118 0
-229 117 -120 0
-229 -117 120 0
229 -228 117 120 -118 0
229 -228 -117 -120 -118 0
231 228 -117 0
231 -228 117 0
-231 228 117 0
-231 -228 -117 0
230 120 -118 0
230 -120 118 0
-230 120 118 0
-230 -120 -118 0
-232 231 0
-232 116 0
-232 115 -118 0
-232 -115 118 0
232 -231 115 118 -116 0
232 -231 -115 -118 -116 0
234 231 -115 0
234 -231 115 0
-234 231 115 0
-234 -231 -115 0
233 118 -116 0
233 -118 116 0
-233 118 116 0
-233 -118 -116 0
-235 234 0
-235 114 0
-235 113 -116 0
-235 -113 116 0
235 -234 113 116 -114 0
235 -234 -113 -116 -114 0
237 234 -113 0
237 -234 113 0
-237 234 113 0
-237 -234 -113 0
236 116 -114 0
236 -116 114 0
-236 116 114 0
-236 -116 -114 0
-238 237 0
-238 112 0
-238 111 -114 0
-238 -111 114 0
238 -237 111 114 -112 0
238 -237 -111 -114 -112 0
240 237 -111 0
240 -237 111 0
-240 237 111 0
-240 -237 -111 0
239 114 -112 0
239 -114 112 0
-239 114 112 0
-239 -114 -112 0
-241 240 0
-241 110 0
-241 109 -112 0
-241 -109 112 0
241 -240 109 112 -110 0
241 -240 -109 -112 -110 0
243 240 -109 0
243 -240 109 0
-243 240 109 0
-243 -240 -109 0
242 112 -110 0
242 -112 110 0
-242 112 110 0
-242 -112 -110 0
-244 243 0
-244 108 0
-244 107 -110 0
-244 -107 110 0
244 -243 107 110 -108 0
244 -243 -107 -110 -108 0
246 243 -107 0
246 -243 107 0
-246 243 107 0
-246 -243 -107 0
245 110 -108 0
245 -110 108 0
-245 110 108 0
-245 -110 -108 0
-247 246 0
-247 106 0
-247 105 -108 0
-247 -105 108 0
247 -246 105 108 -106 0
247 -246 -105 -108 -106 0
249 246 -105 0
249 -246 105 0
-249 246 105 0
-249 -246 -105 0
248 108 -106 0
248 -108 106 0
-248 108 106 0
-248 -108 -106 0
-250 249 0
-250 104 0
-250 103 -106 0
-250 -103 106 0
250 -249 103 106 -104 0
250 -249 -103 -106 -104 0
252 249 -103 0
252 -249 103 0
-252 249 103 0
-252 -249 -103 0
251 106 -104 0
251 -106 104 0
-251 106 104 0
-251 -106 -104 0
-253 252 0
-253 102 0
-253 101 -104 0
-253 -101 104 0
253 -252 101 104 -102 0
253 -252 -101 -104 -102 0
255 252 -101 0
255 -252 101 0
-255 252 101 0
-255 -252 -101 0
254 104 -102 0
254 -104 102 0
-254 104 102 0
-254 -104 -102 0
-256 255 0
-256 100 0
-256 99 -102 0
-256 -99 102 0
256 -255 99 102 -100 0
256 -255 -99 -102 -100 0
258 255 -99 0
258 -255 99 0
-258 255 99 0
-258 -255 -99 0
257 102 -100 0
257 -102 100 0
-257 102 100 0
-257 -102 -100 0
-259 258 0
-259 98 0
-259 97 -100 0
-259 -97 100 0
259 -258 97 100 -98 0
259 -258 -97 -100 -98 0
261 258 -97 0
261 -258 97 0
-261 258 97 0
-261 -258 -97 0
260 100 -98 0
260 -100 98 0
-260 100 98 0
-260 -100 -98 0
-262 261 0
-262 96 0
-262 95 -98 0
-262 -95 98 0
262 -261 95 98 -96 0
262 -261 -95 -98 -96 0
264 261 -95 0
264 -261 95 0
-264 261 95 0
-264 -261 -95 0
263 98 -96 0
263 -98 96 0
-263 98 96 0
-263 -98 -96 0
-265 264 0
-265 94 0
-265 93 -96 0
-265 -93 96 0
265 -264 93 96 -94 0
265 -264 -93 -96 -94 0
267 264 -93 0
267 -264 93 0
-267 264 93 0
-267 -264 -93 0
266 96 -94 0
266 -96 94 0
-266 96 94 0
-266 -96 -94 0
-268 267 0
-268 92 0
-268 91 -94 0
-268 -91 94 0
268 -267 91 94 -92 0
268 -267 -91 -94 -92 0
270 267 -91 0
270 -267 91 0
-270 267 91 0
-270 -267 -91 0
269 94 -92 0
269 -94 92 0
-269 94 92 0
-269 -94 -92 0
-271 270 0
-271 90 0
-271 89 -92 0
-271 -89 92 0
271 -270 89 92 -90 0
271 -270 -89 -92 -90 0
273 270 -89 0
273 -270 89 0
-273 270 89 0
-273 -270 -89 0
272 92 -90 0
272 -92 90 0
-272 92 90 0
-272 -92 -90 0
-274 273 0
-274 88 0
-274 87 -90 0
-274 -87 90 0
274 -273 87 90 -88 0
274 -273 -87 -90 -88 0
276 273 -87 0
276 -273 87 0
-276 273 87 0
-276 -273 -87 0
275 90 -88 0
275 -90 88 0
-275 90 88 0
-275 -90 -88 0
-277 276 0
-277 86 0
-277 85 -88 0
-277 -85 88 0
277 -276 85 88 -86 0
277 -276 -85 -88 -86 0
279 276 -85 0
279 -276 85 0
-279 276 85 0
-279 -276 -85 0
278 88 -86 0
278 -88 86 0
-278 88 86 0
-278 -88 -86 0
-280 279 0
-280 84 0
-280 83 -86 0
-280 -83 86 0
280 -279 83 86 -84 0
280 -279 -83 -86 -84 0
282 279 -83 0
282 -279 83 0
-282 279 83 0
-282 -279 -83 0
281 86 -84 0
281 -86 84 0
-281 86 84 0
-281 -86 -84 0
-283 282 0
-283 82 0
-283 81 -84 0
-283 -81 84 0
283 -282 81 84 -82 0
283 -282 -81 -84 -82 0
285 282 -81 0
285 -282 81 0
-285 282 81 0
-285 -282 -81 0
284 84 -82 0
284 -84 82 0
-284 84 82 0
-284 -84 -82 0
-286 285 0
-286 80 0
-286 79 -82 0
-286 -79 82 0
286 -285 79 82 -80 0
286 -285 -79 -82 -80 0
288 285 -79 0
288 -285 79 0
-288 285 79 0
-288 -285 -79 0
287 82 -80 0
287 -82 80 0
-287 82 80 0
-287 -82 -80 0
-289 288 0
-289 78 0
-289 77 -80 0
-289 -77 80 0
289 -288 77 80 -78 0
289 -288 -77 -80 -78 0
291 288 -77 0
291 -288 77 0
-291 288 77 0
-291 -288 -77 0
290 80 -78 0
290 -80 78 0
-290 80 78 0
-290 -80 -78 0
-292 291 0
-292 76 0
-292 75 -78 0
-292 -75 78 0
292 -291 75 78 -76 0
292 -291 -75 -78 -76 0
294 291 -75 0
294 -291 75 0
-294 291 75 0
-294 -291 -75 0
293 78 -76 0
293 -78 76 0
-293 78 76 0
-293 -78 -76 0
-295 294 0
-295 74 0
-295 73 -76 0
-295 -73 76 0
295 -294 73 76 -74 0
295 -294 -73 -76 -74 0
297 294 -73 0
297 -294 73 0
-297 294 73 0
-297 -294 -73 0
296 76 -74 0
296 -76 74 0
-296 76 74 0
-296 -76 -74 0
-298 297 0
-298 72 0
-298 71 -74 0
-298 -71 74 0
298 -297 71 74 -72 0
298 -297 -71 -74 -72 0
300 297 -71 0
300 -297 71 0
-300 297 71 0
-300 -297 -71 0
299 74 -72 0
299 -74 72 0
-299 74 72 0
-299 -74 -72 0
-301 300 0
-301 70 0
-301 69 -72 0
-301 -69 72 0
301 -300 69 72 -70 0
301 -300 -69 -72 -70 0
303 300 -69 0
303 -300 69 0
-303 300 69 0
-303 -300 -69 0
302 72 -70 0
302 -72 70 0
-302 72 70 0
-302 -72 -70 0
-304 303 0
-304 68 0
-304 67 -70 0
-304 -67 70 0
304 -303 67 70 -68 0
304 -303 -67 -70 -68 0
306 303 -67 0
306 -303 67 0
-306 303 67 0
-306 -303 -67 0
305 70 -68 0
305 -70 68 0
-305 70 68 0
-305 -70 -68 0
-307 306 0
-307 66 0
-307 65 -68 0
-307 -65 68 0
307 -306 65 68 -66 0
307 -306 -65 -68 -66 0
309 306 -65 0
309 -306 65 0
-309 306 65 0
-309 -306 -65 0
308 68 -66 0
308 -68 66 0
-308 68 66 0
-308 -68 -66 0
-310 309 0
-310 64 0
-310 63 -66 0
-310 -63 66 0
310 -309 63 66 -64 0
310 -309 -63 -66 -64 0
312 309 -63 0
312 -309 63 0
-312 309 63 0
-312 -309 -63 0
311 66 -64 0
311 -66 64 0
-311 66 64 0
-311 -66 -64 0
-313 312 0
-313 62 0
-313 61 -64 0
-313 -61 64 0
313 -312 61 64 -62 0
313 -312 -61 -64 -62 0
315 312 -61 0
315 -312 61 0
-315 312 61 0
-315 -312 -61 0
314 64 -62 0
314 -64 62 0
-314 64 62 0
-314 -64 -62 0
-316 315 0
-316 60 0
-316 59 -62 0
-316 -59 62 0
316 -315 59 62 -60 0
316 -315 -59 -62 -60 0
318 315 -59 0
318 -315 59 0
-318 315 59 0
-318 -315 -59 0
317 62 -60 0
317 -62 60 0
-317 62 60 0
-317 -62 -60 0
-319 318 0
-319 58 0
-319 57 -60 0
-319 -57 60 0
319 -318 57 60 -58 0
319 -318 -57 -60 -58 0
321 318 -57 0
321 -318 57 0
-321 318 57 0
-321 -318 -57 0
320 60 -58 0
320 -60 58 0
-320 60 58 0
-320 -60 -58 0
-322 321 0
-322 56 0
-322 55 -58 0
-322 -55 58 0
322 -321 55 58 -56 0
322 -321 -55 -58 -56 0
324 321 -55 0
324 -321 55 0
-324 321 55 0
-324 -321 -55 0
323 58 -56 0
323 -58 56 0
-323 58 56 0
-323 -58 -56 0
-325 324 0
-325 54 0
-325 53 -56 0
-325 -53 56 0
325 -324 53 56 -54 0
325 -324 -53 -56 -54 0
327 324 -53 0
327 -324 53 0
-327 324 53 0
-327 -324 -53 0
326 56 -54 0
326 -56 54 0
-326 56 54 0
-326 -56 -54 0
-328 327 0
-328 52 0
-328 51 -54 0
-328 -51 54 0
328 -327 51 54 -52 0
328 -327 -51 -54 -52 0
330 327 -51 0
330 -327 51 0
-330 327 51 0
-330 -327 -51 0
329 54 -52 0
329 -54 52 0
-329 54 52 0
-329 -54 -52 0
-331 330 0
-331 50 0
-331 49 -52 0
-331 -49 52 0
331 -330 49 52 -50 0
331 -330 -49 -52 -50 0
333 330 -49 0
333 -330 49 0
-333 330 49 0
-333 -330 -49 0
332 52 -50 0
332 -52 50 0
-332 52 50 0
-332 -52 -50 0
-334 333 0
-334 48 0
-334 47 -50 0
-334 -47 50 0
334 -333 47 50 -48 0
334 -333 -47 -50 -48 0
336 333 -47 0
336 -333 47 0
-336 333 47 0
-336 -333 -47 0
335 50 -48 0
335 -50 48 0
-335 50 48 0
-335 -50 -48 0
-337 336 0
-337 46 0
-337 45 -48 0
-337 -45 48 0
337 -336 45 48 -46 0
337 -336 -45 -48 -46 0
339 336 -45 0
339 -336 45 0
-339 336 45 0
-339 -336 -45 0
338 48 -46 0
338 -48 46 0
-338 48 46 0
-338 -48 -46 0
-340 339 0
-340 44 0
-340 43 -46 0
-340 -43 46 0
340 -339 43 46 -44 0
340 -339 -43 -46 -44 0
342 339 -43 0
342 -339 43 0
-342 339 43 0
-342 -339 -43 0
341 46 -44 0
341 -46 44 0
-341 46 44 0
-341 -46 -44 0
-343 342 0
-343 42 0
-343 41 -44 0
-343 -41 44 0
343 -342 41 44 -42 0
343 -342 -41 -44 -42 0
345 342 -41 0
345 -342 41 0
-345 342 41 0
-345 -342 -41 0
344 44 -42 0
344 -44 42 0
-344 44 42 0
-344 -44 -42 0
-346 345 0
-346 40 0
-346 39 -42 0
-346 -39 42 0
346 -345 39 42 -40 0
346 -345 -39 -42 -40 0
348 345 -39 0
348 -345 39 0
-348 345 39 0
-348 -345 -39 0
347 42 -40 0
347 -42 40 0
-347 42 40 0
-347 -42 -40 0
-349 348 0
-349 38 0
-349 37 -40 0
-349 -37 40 0
349 -348 37 40 -38 0
349 -348 -37 -40 -38 0
351 348 -37 0
351 -348 37 0
-351 348 37 0
-351 -348 -37 0
350 40 -38 0
350 -40 38 0
-350 40 38 0
-350 -40 -38 0
-352 351 0
-352 36 0
-352 35 -38 0
-352 -35 38 0
352 -351 35 38 -36 0
352 -351 -35 -38 -36 0
354 351 -35 0
354 -351 35 0
-354 351 35 0
-354 -351 -35 0
353 38 -36 0
353 -38 36 0
-353 38 36 0
-353 -38 -36 0
-355 354 0
-355 34 0
-355 33 -36 0
-355 -33 36 0
355 -354 33 36 -34 0
355 -354 -33 -36 -34 0
357 354 -33 0
357 -354 33 0
-357 354 33 0
-357 -354 -33 0
356 36 -34 0
356 -36 34 0
-356 36 34 0
-356 -36 -34 0
-358 357 0
-358 32 0
-358 31 -34 0
-358 -31 34 0
358 -357 31 34 -32 0
358 -357 -31 -34 -32 0
360 357 -31 0
360 -357 31 0
-360 357 31 0
-360 -357 -31 0
359 34 -32 0
359 -34 32 0
-359 34 32 0
-359 -34 -32 0
-361 360 0
-361 30 0
-361 29 -32 0
-361 -29 32 0
361 -360 29 32 -30 0
361 -360 -29 -32 -30 0
363 360 -29 0
363 -360 29 0
-363 360 29 0
-363 -360 -29 0
362 32 -30 0
362 -32 30 0
-362 32 30 0
-362 -32 -30 0
-364 363 0
-364 28 0
-364 27 -30 0
-364 -27 30 0
364 -363 27 30 -28 0
364 -363 -27 -30 -28 0
366 363 -27 0
366 -363 27 0
-366 363 27 0
-366 -363 -27 0
365 30 -28 0
365 -30 28 0
-365 30 28 0
-365 -30 -28 0
-367 366 0
-367 26 0
-367 25 -28 0
-367 -25 28 0
367 -366 25 28 -26 0
367 -366 -25 -28 -26 0
369 366 -25 0
369 -366 25 0
-369 366 25 0
-369 -366 -25 0
368 28 -26 0
368 -28 26 0
-368 28 26 0
-368 -28 -26 0
-370 369 0
-370 24 0
-370 23 -26 0
-370 -23 26 0
370 -369 23 26 -24 0
370 -369 -23 -26 -24 0
372 369 -23 0
372 -369 23 0
-372 369 23 0
-372 -369 -23 0
371 26 -24 0
371 -26 24 0
-371 26 24 0
-371 -26 -24 0
-373 372 0
-373 22 0
-373 21 -24 0
-373 -21 24 0
373 -372 21 24 -22 0
373 -372 -21 -24 -22 0
375 372 -21 0
375 -372 21 0
-375 372 21 0
-375 -372 -21 0
374 24 -22 0
374 -24 22 0
-374 24 22 0
-374 -24 -22 0
-376 375 0
-376 20 0
-376 19 -22 0
-376 -19 22 0
376 -375 19 22 -20 0
376 -375 -19 -22 -20 0
378 375 -19 0
378 -375 19 0
-378 375 19 0
-378 -375 -19 0
377 22 -20 0
377 -22 20 0
-377 22 20 0
-377 -22 -20 0
-379 378 0
-379 18 0
-379 17 -20 0
-379 -17 20 0
379 -378 17 20 -18 0
379 -378 -17 -20 -18 0
381 378 -17 0
381 -378 17 0
-381 378 17 0
-381 -378 -17 0
380 20 -18 0
380 -20 18 0
-380 20 18 0
-380 -20 -18 0
-382 381 0
-382 16 0
-382 15 -18 0
-382 -15 18 0
382 -381 15 18 -16 0
382 -381 -15 -18 -16 0
384 381 -15 0
384 -381 15 0
-384 381 15 0
-384 -381 -15 0
383 18 -16 0
383 -18 16 0
-383 18 16 0
-383 -18 -16 0
-385 384 0
-385 14 0
-385 13 -16 0
-385 -13 16 0
385 -384 13 16 -14 0
385 -384 -13 -16 -14 0
387 384 -13 0
387 -384 13 0
-387 384 13 0
-387 -384 -13 0
386 16 -14 0
386 -16 14 0
-386 16 14 0
-386 -16 -14 0
-388 387 0
-388 12 0
-388 11 -14 0
-388 -11 14 0
388 -387 11 14 -12 0
388 -387 -11 -14 -12 0
390 387 -11 0
390 -387 11 0
-390 387 11 0
-390 -387 -11 0
389 14 -12 0
389 -14 12 0
-389 14 12 0
-389 -14 -12 0
-391 390 0
-391 10 0
-391 9 -12 0
-391 -9 12 0
391 -390 9 12 -10 0
391 -390 -9 -12 -10 0
393 390 -9 0
393 -390 9 0
-393 390 9 0
-393 -390 -9 0
392 12 -10 0
392 -12 10 0
-392 12 10 0
-392 -12 -10 0
-394 393 0
-394 8 0
-394 7 -10 0
-394 -7 10 0
394 -393 7 10 -8 0
394 -393 -7 -10 -8 0
396 393 -7 0
396 -393 7 0
-396 393 7 0
-396 -393 -7 0
395 10 -8 0
395 -10 8 0
-395 10 8 0
-395 -10 -8 0
-397 396 0
-397 6 0
-397 5 -8 0
-397 -5 8 0
397 -396 5 8 -6 0
397 -396 -5 -8 -6 0
399 396 -5 0
399 -396 5 0
-399 396 5 0
-399 -396 -5 0
398 8 -6 0
398 -8 6 0
-398 8 6 0
-398 -8 -6 0
-400 399 0
-400 4 0
-400 3 -6 0
-400 -3 6 0
400 -399 3 6 -4 0
400 -399 -3 -6 -4 0
402 399 -3 0
402 -399 3 0
-402 399 3 0
-402 -399 -3 0
401 6 -4 0
401 -6 4 0
-401 6 4 0
-401 -6 -4 0
-403 402 0
-403 2 0
-403 1 -4 0
-403 -1 4 0
403 -402 1 4 -2 0
403 -402 -1 -4 -2 0
405 402 -1 0
405 -402 1 0
-405 402 1 0
-405 -402 -1 0
404 4 -2 0
404 -4 2 0
-404 4 2 0
-404 -4 -2 0
-405 0
-402 0
-404 0
-399 0
-401 0
-396 0
-398 0
-393 0
-395 0
-390 0
-392 0
-387 0
-389 0
-384 0
-386 0
-381 0
-383 0
-378 0
-380 0
-375 0
-377 0
-372 0
-374 0
-369 0
-371 0
-366 0
-368 0
-363 0
-365 0
-360 0
-362 0
-357 0
-359 0
-354 0
-356 0
-351 0
-353 0
-348 0
-350 0
-345 0
-347 0
-342 0
-344 0
-339 0
-341 0
-336 0
-338 0
-333 0
-335 0
-330 0
-332 0
-327 0
-329 0
-324 0
-326 0
-321 0
-323 0
-318 0
-320 0
-315 0
-317 0
-312 0
-314 0
-309 0
-311 0
-306 0
-308 0
-303 0
-305 0
-300 0
-302 0
-297 0
-299 0
-294 0
-296 0
-291 0
-293 0
-288 0
-290 0
-285 0
-287 0
-282 0
-284 0
-279 0
-281 0
-276 0
-278 0
-273 0
-275 0
-270 0
-272 0
-267 0
-269 0
-264 0
-266 0
-261 0
-263 0
-258 0
-260 0
-255 0
-257 0
-252 0
-254 0
-249 0
-251 0
-246 0
-248 0
-243 0
-245 0
-240 0
-242 0
-237 0
-239 0
-234 0
-236 0
-231 0
-233 0
-228 0
-230 0
-225 0
-227 0
-222 0
-224 0
-219 0
-221 0
-216 0
-218 0
-213 0
-215 0
-210 0
-212 0
-207 0
-209 0
-204 0
-206 0
-201 0
-203 0
-198 0
-200 0
-195 0
-197 0
-192 0
-194 0
-189 0
-191 0
-186 0
-188 0
-183 0
-185 0
-180 0
-182 0
-177 0
-179 0
-174 0
-176 0
-171 0
-173 0
-164 0
-170 0
